5
75
215
40	24
1	4	7	5	20	3	19	3	5	3	
2	5	5	5	9	4	24	3	21	3	14	3	
3	2	6	4	20	3	
4	2	13	4	20	2	
5	1	8	5	
6	2	7	8	9	2	
7	4	7	8	10	5	6	5	7	4	
8	5	6	6	22	4	11	4	21	3	8	2	
9	1	11	3	
10	5	7	5	19	3	17	3	11	3	14	2	
11	2	11	6	18	3	
12	1	6	4	
13	4	16	4	5	4	11	3	17	2	
14	3	10	5	12	3	10	3	
15	1	4	2	
16	2	19	4	13	4	
17	4	8	10	23	3	15	2	9	2	
18	5	6	11	6	10	10	5	8	5	20	3	
19	4	8	6	21	4	5	4	6	3	
20	1	11	5	
21	1	16	4	
22	3	12	4	7	4	8	3	
23	4	10	4	16	3	8	3	5	3	
24	2	7	11	11	5	
25	2	10	5	6	2	
26	4	11	5	23	4	23	3	14	3	
27	1	6	3	
28	5	22	4	12	3	7	3	6	3	4	3	
29	4	12	5	15	4	9	3	6	3	
30	1	8	10	
31	2	8	10	22	3	
32	2	7	10	5	4	
33	1	22	2	
34	1	14	3	
35	1	5	4	
36	4	4	11	5	6	8	5	15	3	
37	4	10	6	6	6	15	3	7	3	
38	2	8	5	12	4	
39	1	5	7	
40	4	7	10	12	5	4	3	9	2	
41	4	6	11	5	9	19	4	17	3	
42	3	5	4	8	3	4	3	
43	3	6	10	6	10	18	4	
44	1	11	2	
45	5	6	12	4	5	5	4	5	4	11	3	
46	2	9	4	14	2	
47	1	12	2	
48	3	7	5	24	4	6	3	
49	5	5	10	5	6	5	4	13	3	7	3	
50	2	7	6	11	3	
51	3	7	4	19	3	12	3	
52	3	4	10	8	6	6	3	
53	5	11	5	7	4	6	4	7	3	8	2	
54	1	12	3	
55	5	7	6	19	3	14	3	6	3	22	2	
56	3	8	8	10	6	12	3	
57	5	4	12	6	11	6	11	4	10	5	5	
58	2	14	3	10	3	
59	1	4	2	
60	2	5	7	19	4	
61	4	5	12	23	4	11	3	5	2	
62	2	5	4	8	3	
63	5	6	11	10	4	10	4	8	4	10	2	
64	2	7	10	20	4	
65	1	4	3	
66	4	6	9	10	5	21	4	9	4	
67	4	6	10	4	4	12	3	11	3	
68	3	8	6	9	4	5	3	
69	4	4	12	8	4	12	3	6	3	
70	5	10	6	7	5	9	4	10	3	18	2	
71	1	6	4	
72	2	11	4	18	3	
73	5	5	7	9	6	4	4	21	2	5	2	
74	3	6	4	15	3	20	2	
75	4	5	5	5	4	11	3	12	2	
